n = 10
Q1 = [0 0 0 0 0 39 36 0 0 30; 0 0 0 0 0 0 0 0 0 0; 0 0 0 0 31 37 0 0 48 0; 0 0 0 0 0 0 0 23 0 0; 0 0 0 0 0 0 0 31 0 0; 0 0 0 0 0 0 0 0 0 23; 0 0 0 0 0 0 0 25 0 50; 0 0 0 0 0 0 0 0 31 0; 0 0 0 0 0 0 0 0 0 12; 0 0 0 0 0 0 0 0 0 0]
Q2 = [0.0 0.0 0.0 0.0 0.0 7.0 3.0 0.0 0.0 3.0; 0.0 0.0 0.0 0.0 0.0 0.0 0.0 0.0 0.0 0.0; 0.0 0.0 0.0 0.0 10.0 7.0 0.0 0.0 1.0 0.0; 0.0 0.0 0.0 0.0 0.0 0.0 0.0 50.0 0.0 0.0; 0.0 0.0 0.0 0.0 0.0 0.0 0.0 1.0 0.0 0.0; 0.0 0.0 0.0 0.0 0.0 0.0 0.0 0.0 0.0 35.0; 0.0 0.0 0.0 0.0 0.0 0.0 0.0 1.0 0.0 0.0; 0.0 0.0 0.0 0.0 0.0 0.0 0.0 0.0 1.0 0.0; 0.0 0.0 0.0 0.0 0.0 0.0 0.0 0.0 0.0 40.0; 0.0 0.0 0.0 0.0 0.0 0.0 0.0 0.0 0.0 0.0]
Q3 = [0 73 73 73 73 22 8 73 73 70; 0 0 73 73 73 73 73 73 73 73; 0 0 0 73 10 21 73 73 13 73; 0 0 0 0 73 73 73 0 73 73; 0 0 0 0 0 73 73 42 73 73; 0 0 0 0 0 0 73 73 73 3; 0 0 0 0 0 0 0 65 73 0; 0 0 0 0 0 0 0 0 45 73; 0 0 0 0 0 0 0 0 0 16; 0 0 0 0 0 0 0 0 0 0]
